offer1 = [1, 1, 1, 1, 1, 2, 2, 2, 2, 2, 2, 3, 3, 3, 3, 3];
offer2 = [1, 1, 1, 2, 2, 1, 2, 2, 2, 2, 3, 1, 1, 1, 2, 2];
offer3 = [1, 3, 4, 2, 5, 3, 1, 2, 3, 5, 4, 1, 2, 3, 2, 4];
offer4 = [1, 1, 1, 2, 1, 2, 2, 1, 2, 2, 2, 3, 1, 2, 2, 2];
price1 = [1, 1, 2, 2, 2, 3, 3];
price2 = [1, 2, 1, 2, 3, 1, 2];
price3 = [7, 7, 3, 9, 4, 5, 5];
maxacceptedoffer1 = [2];
need1 = [1, 2, 3, 4, 5];
need2 = [3, 2, 4, 1, 3];
